100
128
22
14
49
8
43
30
55
39
25
10
53
53
56
6
30
50
47
7
11
26
19
34
26
40
18
39
52
19
56
23
55
39
8
30
64
39
37
31
34
36
3
41
28
11
13
39
30
34
13
16
4
32
32
19
36
14
18
38
36
64
49
4
27
20
29
33
30
5
1
26
48
17
19
4
2
1
58
5
52
24
28
5
40
2
4
48
37
53
21
47
20
23
36
28
44
46
38
4
61
25